% demand
num_movements = 14;
loading_factor = [800, 1900, 1850, 1400, 1050, 1450, 1950, 1200, 1000, 950, 1650, 1200, 2000, 1800];
pickup_time = [0, 0, 0, 0, 0, 2, 2, 3, 3, 3, 6, 6, 6, 6];
delivery_time = [2, 2, 2, 2, 3, 5, 4, 4, 5, 4, 8, 8, 8, 8];

% transporter definition
total_capacity = 7000;
num_decks = 3;
capacity = [3000, 1000, 3000];

% ways out of decks
num_ways_out = 1;
paths_out = array3d(decks, ways_out, decks, [
% ways out of deck d1
2, 3, 0, 

% ways out of deck d2
3, 0, 0, 

% ways out of deck d3
0, 0, 0,	

]);

